labs/solution-files/phpd-03.drat
-1 -5 0
-1 -6 0
-1 0
-2 -5 0
-2 0
-3 -5 0
-3 0
-5 0
0
