labs/solution-files/phpd-03.lrat
22 d 0
24 -1 -6 0 14 15 6 7 3 4 22 0
25 -1 0 5 6 7 24 2 20 21 3 4 16 0
25 d 5 6 7 24 0
26 -2 -5 0 12 13 8 9 3 4 22 0
26 d 22 0
27 -2 0 25 8 9 26 1 18 19 3 4 16 0
27 d 8 9 26 16 0
28 -3 -5 0 27 11 10 2 13 4 21 0
28 d 13 21 0
29 -3 0 25 27 10 28 1 17 2 19 15 4 0
29 d 10 28 19 15 4 0
30 -5 0 27 29 11 2 12 3 20 0
30 d 11 12 20 0
32 0 25 27 29 30 1 17 18 2 3 14 0
